c 
c G(n,p) graph
c graph gen seed     : 879
c number of vertices : 20
c max number of edges: 400
c edge probability   : 0.600000
c data structure     : dense
c
c           Graph Stats
c number of vertices  : 20
c nonisolated vertices: 20
c number of edges     : 109
c edge density        : 0.573684
c max degree          : 16
c avg degree          : 10.90
c min degree          : 5
p col 20 109
e 1 2
e 1 4
e 1 5
e 1 6
e 1 9
e 1 11
e 1 13
e 1 14
e 1 15
e 1 16
e 1 17
e 1 19
e 1 20
e 2 3
e 2 7
e 2 8
e 2 9
e 2 12
e 2 15
e 2 17
e 2 20
e 3 4
e 3 9
e 3 11
e 3 13
e 3 18
e 3 19
e 3 20
e 4 5
e 4 6
e 4 7
e 4 8
e 4 9
e 4 10
e 4 13
e 4 14
e 5 6
e 5 7
e 5 8
e 5 9
e 5 10
e 5 11
e 5 15
e 5 16
e 5 17
e 5 19
e 6 8
e 6 9
e 6 11
e 6 14
e 6 16
e 6 17
e 6 18
e 6 19
e 6 20
e 7 8
e 7 11
e 7 13
e 7 14
e 7 15
e 7 16
e 7 17
e 7 18
e 7 20
e 8 9
e 8 10
e 8 11
e 8 12
e 8 13
e 8 15
e 8 16
e 8 17
e 8 18
e 8 19
e 8 20
e 9 11
e 9 13
e 9 18
e 9 20
e 10 12
e 10 14
e 10 16
e 10 17
e 10 19
e 10 20
e 11 14
e 11 16
e 11 18
e 11 19
e 12 14
e 12 15
e 13 14
e 13 16
e 13 18
e 13 19
e 13 20
e 14 16
e 14 17
e 14 18
e 14 20
e 15 16
e 15 17
e 15 19
e 16 17
e 16 18
e 17 19
e 17 20
e 18 19
e 18 20
